language Essence 1.3

letting bot_end be [987, 20, 175, 902, 945, 993, 70, 1, 1010, 946, 990, 0, 816, 11, 1005, 878; int(1..16)]
letting bot_start be [25, 884, 946, 85, 2, 152, 945, 878, 113, 175, 126, 959, 21, 990, 44, 66; int(1..16)]
letting buffer_col be 2
letting buffer_row be 2
letting corridor_size be 1
letting n_shelves_col be 6
letting n_shelves_row be 21
letting shelf_col_size be 2
letting shelf_row_size be 1
